proyfinal/src/viki/013/experimentInOfficeAgust.take6.output/d9fd873a-d69a-401f-a9d0-dc061b09f59a.als.out
Reading from standard input... Use '--help' for help.
============================[ Problem Statistics ]=============================
|                                                                             |
|  Number of variables:         87638                                         |
|  Number of clauses:          161767                                         |
|  Parse time:                   0.04 s                                       |
|                                                                             |
============================[ Search Statistics ]==============================
| Conflicts |          ORIGINAL         |          LEARNT          | Progress |
|           |    Vars  Clauses Literals |    Limit  Clauses Lit/Cl |          |
===============================================================================
|       100 |   63355   108989   271626 |    39962      100     10 | 27.708 % |
|       250 |   63181   108769   271132 |    43958      240     54 | 27.907 % |
|       475 |   63181   108769   271132 |    48354      465     70 | 27.907 % |
|       812 |   63181   108246   269913 |    53190      800     66 | 27.907 % |
|      1318 |   63181   108246   269913 |    58509     1306     52 | 27.907 % |
|      2077 |   63181   108246   269913 |    64360     2065     58 | 27.907 % |
|      3216 |   63181   108246   269913 |    70796     3204     56 | 27.907 % |
|      4924 |   63045   107702   268605 |    77875     4855     55 | 28.062 % |
|      7486 |   63019   107559   268293 |    85663     7078     58 | 28.092 % |
|     11330 |   63019   107559   268293 |    94229    10922     63 | 28.092 % |
|     17096 |   62989   107437   267990 |   103652    16499     67 | 28.126 % |
===============================================================================
restarts              : 63
conflicts             : 18391          (8292 /sec)
decisions             : 59393          (0.00 % random) (26777 /sec)
propagations          : 23908255       (10778952 /sec)
conflict literals     : 1204538        (51.65 % deleted)
Memory used           : 35.51 MB
CPU time              : 2.21805 s

UNSATISFIABLE
